p cnf 252 810
1 2 3 4 0
-1 73 0
-2 73 0
-1 -2 74 0
-3 75 0
-4 75 0
-3 -4 76 0
-73 77 0
-75 77 0
-73 -75 78 0
-74 79 0
-76 79 0
-74 -76 80 0
-78 81 0
-79 81 0
-78 -79 82 0
-81 0
25 26 27 28 0
-25 83 0
-26 83 0
-25 -26 84 0
-27 85 0
-28 85 0
-27 -28 86 0
-83 87 0
-85 87 0
-83 -85 88 0
-84 89 0
-86 89 0
-84 -86 90 0
-88 91 0
-89 91 0
-88 -89 92 0
-91 0
49 50 51 52 0
-49 93 0
-50 93 0
-49 -50 94 0
-51 95 0
-52 95 0
-51 -52 96 0
-93 97 0
-95 97 0
-93 -95 98 0
-94 99 0
-96 99 0
-94 -96 100 0
-98 101 0
-99 101 0
-98 -99 102 0
-101 0
5 6 7 8 0
-5 103 0
-6 103 0
-5 -6 104 0
-7 105 0
-8 105 0
-7 -8 106 0
-103 107 0
-105 107 0
-103 -105 108 0
-104 109 0
-106 109 0
-104 -106 110 0
-108 111 0
-109 111 0
-108 -109 112 0
-111 0
29 30 31 32 0
-29 113 0
-30 113 0
-29 -30 114 0
-31 115 0
-32 115 0
-31 -32 116 0
-113 117 0
-115 117 0
-113 -115 118 0
-114 119 0
-116 119 0
-114 -116 120 0
-118 121 0
-119 121 0
-118 -119 122 0
-121 0
53 54 55 56 0
-53 123 0
-54 123 0
-53 -54 124 0
-55 125 0
-56 125 0
-55 -56 126 0
-123 127 0
-125 127 0
-123 -125 128 0
-124 129 0
-126 129 0
-124 -126 130 0
-128 131 0
-129 131 0
-128 -129 132 0
-131 0
9 10 11 12 0
-9 133 0
-10 133 0
-9 -10 134 0
-11 135 0
-12 135 0
-11 -12 136 0
-133 137 0
-135 137 0
-133 -135 138 0
-134 139 0
-136 139 0
-134 -136 140 0
-138 141 0
-139 141 0
-138 -139 142 0
-141 0
33 34 35 36 0
-33 143 0
-34 143 0
-33 -34 144 0
-35 145 0
-36 145 0
-35 -36 146 0
-143 147 0
-145 147 0
-143 -145 148 0
-144 149 0
-146 149 0
-144 -146 150 0
-148 151 0
-149 151 0
-148 -149 152 0
-151 0
57 58 59 60 0
-57 153 0
-58 153 0
-57 -58 154 0
-59 155 0
-60 155 0
-59 -60 156 0
-153 157 0
-155 157 0
-153 -155 158 0
-154 159 0
-156 159 0
-154 -156 160 0
-158 161 0
-159 161 0
-158 -159 162 0
-161 0
13 14 15 16 0
-13 163 0
-14 163 0
-13 -14 164 0
-15 165 0
-16 165 0
-15 -16 166 0
-163 167 0
-165 167 0
-163 -165 168 0
-164 169 0
-166 169 0
-164 -166 170 0
-168 171 0
-169 171 0
-168 -169 172 0
-171 0
37 38 39 40 0
-37 173 0
-38 173 0
-37 -38 174 0
-39 175 0
-40 175 0
-39 -40 176 0
-173 177 0
-175 177 0
-173 -175 178 0
-174 179 0
-176 179 0
-174 -176 180 0
-178 181 0
-179 181 0
-178 -179 182 0
-181 0
61 62 63 64 0
-61 183 0
-62 183 0
-61 -62 184 0
-63 185 0
-64 185 0
-63 -64 186 0
-183 187 0
-185 187 0
-183 -185 188 0
-184 189 0
-186 189 0
-184 -186 190 0
-188 191 0
-189 191 0
-188 -189 192 0
-191 0
17 18 19 20 0
-17 193 0
-18 193 0
-17 -18 194 0
-19 195 0
-20 195 0
-19 -20 196 0
-193 197 0
-195 197 0
-193 -195 198 0
-194 199 0
-196 199 0
-194 -196 200 0
-198 201 0
-199 201 0
-198 -199 202 0
-201 0
41 42 43 44 0
-41 203 0
-42 203 0
-41 -42 204 0
-43 205 0
-44 205 0
-43 -44 206 0
-203 207 0
-205 207 0
-203 -205 208 0
-204 209 0
-206 209 0
-204 -206 210 0
-208 211 0
-209 211 0
-208 -209 212 0
-211 0
65 66 67 68 0
-65 213 0
-66 213 0
-65 -66 214 0
-67 215 0
-68 215 0
-67 -68 216 0
-213 217 0
-215 217 0
-213 -215 218 0
-214 219 0
-216 219 0
-214 -216 220 0
-218 221 0
-219 221 0
-218 -219 222 0
-221 0
21 22 23 24 0
-21 223 0
-22 223 0
-21 -22 224 0
-23 225 0
-24 225 0
-23 -24 226 0
-223 227 0
-225 227 0
-223 -225 228 0
-224 229 0
-226 229 0
-224 -226 230 0
-228 231 0
-229 231 0
-228 -229 232 0
-231 0
45 46 47 48 0
-45 233 0
-46 233 0
-45 -46 234 0
-47 235 0
-48 235 0
-47 -48 236 0
-233 237 0
-235 237 0
-233 -235 238 0
-234 239 0
-236 239 0
-234 -236 240 0
-238 241 0
-239 241 0
-238 -239 242 0
-241 0
69 70 71 72 0
-69 243 0
-70 243 0
-69 -70 244 0
-71 245 0
-72 245 0
-71 -72 246 0
-243 247 0
-245 247 0
-243 -245 248 0
-244 249 0
-246 249 0
-244 -246 250 0
-248 251 0
-249 251 0
-248 -249 252 0
-251 0
-1 -25 6 0
-1 -26 6 0
-1 -27 6 0
-1 -28 6 0
-2 -25 6 0
-2 -26 7 0
-2 -27 7 0
-2 -28 7 0
-3 -25 6 0
-3 -26 7 0
-3 -27 8 0
-3 -28 8 0
-4 -25 6 0
-4 -26 7 0
-4 -27 8 0
-4 -28 5 0
-25 -1 -49 30 0
-25 -2 -49 30 0
-25 -3 -49 30 0
-25 -4 -49 30 0
-25 -1 -50 30 0
-25 -2 -50 30 0
-25 -3 -50 30 0
-25 -4 -50 30 0
-25 -1 -51 30 0
-25 -2 -51 30 0
-25 -3 -51 30 0
-25 -4 -51 30 0
-25 -1 -52 30 0
-25 -2 -52 30 0
-25 -3 -52 30 0
-25 -4 -52 30 0
-26 -1 -49 30 0
-26 -2 -49 30 0
-26 -3 -49 30 0
-26 -4 -49 30 0
-26 -1 -50 30 0
-26 -2 -50 31 0
-26 -3 -50 31 0
-26 -4 -50 31 0
-26 -1 -51 30 0
-26 -2 -51 31 0
-26 -3 -51 31 0
-26 -4 -51 31 0
-26 -1 -52 30 0
-26 -2 -52 31 0
-26 -3 -52 31 0
-26 -4 -52 31 0
-27 -1 -49 30 0
-27 -2 -49 30 0
-27 -3 -49 30 0
-27 -4 -49 30 0
-27 -1 -50 30 0
-27 -2 -50 31 0
-27 -3 -50 31 0
-27 -4 -50 31 0
-27 -1 -51 30 0
-27 -2 -51 31 0
-27 -3 -51 32 0
-27 -4 -51 32 0
-27 -1 -52 30 0
-27 -2 -52 31 0
-27 -3 -52 32 0
-27 -4 -52 32 0
-28 -1 -49 30 0
-28 -2 -49 30 0
-28 -3 -49 30 0
-28 -4 -49 30 0
-28 -1 -50 30 0
-28 -2 -50 31 0
-28 -3 -50 31 0
-28 -4 -50 31 0
-28 -1 -51 30 0
-28 -2 -51 31 0
-28 -3 -51 32 0
-28 -4 -51 32 0
-28 -1 -52 30 0
-28 -2 -52 31 0
-28 -3 -52 32 0
-28 -4 -52 29 0
-49 -25 54 0
-49 -26 54 0
-49 -27 54 0
-49 -28 54 0
-50 -25 54 0
-50 -26 55 0
-50 -27 55 0
-50 -28 55 0
-51 -25 54 0
-51 -26 55 0
-51 -27 56 0
-51 -28 56 0
-52 -25 54 0
-52 -26 55 0
-52 -27 56 0
-52 -28 53 0
-5 -29 10 0
-5 -30 10 0
-5 -31 10 0
-5 -32 10 0
-6 -29 10 0
-6 -30 11 0
-6 -31 11 0
-6 -32 11 0
-7 -29 10 0
-7 -30 11 0
-7 -31 12 0
-7 -32 12 0
-8 -29 10 0
-8 -30 11 0
-8 -31 12 0
-8 -32 9 0
-29 -5 -53 34 0
-29 -6 -53 34 0
-29 -7 -53 34 0
-29 -8 -53 34 0
-29 -5 -54 34 0
-29 -6 -54 34 0
-29 -7 -54 34 0
-29 -8 -54 34 0
-29 -5 -55 34 0
-29 -6 -55 34 0
-29 -7 -55 34 0
-29 -8 -55 34 0
-29 -5 -56 34 0
-29 -6 -56 34 0
-29 -7 -56 34 0
-29 -8 -56 34 0
-30 -5 -53 34 0
-30 -6 -53 34 0
-30 -7 -53 34 0
-30 -8 -53 34 0
-30 -5 -54 34 0
-30 -6 -54 35 0
-30 -7 -54 35 0
-30 -8 -54 35 0
-30 -5 -55 34 0
-30 -6 -55 35 0
-30 -7 -55 35 0
-30 -8 -55 35 0
-30 -5 -56 34 0
-30 -6 -56 35 0
-30 -7 -56 35 0
-30 -8 -56 35 0
-31 -5 -53 34 0
-31 -6 -53 34 0
-31 -7 -53 34 0
-31 -8 -53 34 0
-31 -5 -54 34 0
-31 -6 -54 35 0
-31 -7 -54 35 0
-31 -8 -54 35 0
-31 -5 -55 34 0
-31 -6 -55 35 0
-31 -7 -55 36 0
-31 -8 -55 36 0
-31 -5 -56 34 0
-31 -6 -56 35 0
-31 -7 -56 36 0
-31 -8 -56 36 0
-32 -5 -53 34 0
-32 -6 -53 34 0
-32 -7 -53 34 0
-32 -8 -53 34 0
-32 -5 -54 34 0
-32 -6 -54 35 0
-32 -7 -54 35 0
-32 -8 -54 35 0
-32 -5 -55 34 0
-32 -6 -55 35 0
-32 -7 -55 36 0
-32 -8 -55 36 0
-32 -5 -56 34 0
-32 -6 -56 35 0
-32 -7 -56 36 0
-32 -8 -56 33 0
-53 -29 58 0
-53 -30 58 0
-53 -31 58 0
-53 -32 58 0
-54 -29 58 0
-54 -30 59 0
-54 -31 59 0
-54 -32 59 0
-55 -29 58 0
-55 -30 59 0
-55 -31 60 0
-55 -32 60 0
-56 -29 58 0
-56 -30 59 0
-56 -31 60 0
-56 -32 57 0
-9 -33 14 0
-9 -34 14 0
-9 -35 14 0
-9 -36 14 0
-10 -33 14 0
-10 -34 15 0
-10 -35 15 0
-10 -36 15 0
-11 -33 14 0
-11 -34 15 0
-11 -35 16 0
-11 -36 16 0
-12 -33 14 0
-12 -34 15 0
-12 -35 16 0
-12 -36 13 0
-33 -9 -57 38 0
-33 -10 -57 38 0
-33 -11 -57 38 0
-33 -12 -57 38 0
-33 -9 -58 38 0
-33 -10 -58 38 0
-33 -11 -58 38 0
-33 -12 -58 38 0
-33 -9 -59 38 0
-33 -10 -59 38 0
-33 -11 -59 38 0
-33 -12 -59 38 0
-33 -9 -60 38 0
-33 -10 -60 38 0
-33 -11 -60 38 0
-33 -12 -60 38 0
-34 -9 -57 38 0
-34 -10 -57 38 0
-34 -11 -57 38 0
-34 -12 -57 38 0
-34 -9 -58 38 0
-34 -10 -58 39 0
-34 -11 -58 39 0
-34 -12 -58 39 0
-34 -9 -59 38 0
-34 -10 -59 39 0
-34 -11 -59 39 0
-34 -12 -59 39 0
-34 -9 -60 38 0
-34 -10 -60 39 0
-34 -11 -60 39 0
-34 -12 -60 39 0
-35 -9 -57 38 0
-35 -10 -57 38 0
-35 -11 -57 38 0
-35 -12 -57 38 0
-35 -9 -58 38 0
-35 -10 -58 39 0
-35 -11 -58 39 0
-35 -12 -58 39 0
-35 -9 -59 38 0
-35 -10 -59 39 0
-35 -11 -59 40 0
-35 -12 -59 40 0
-35 -9 -60 38 0
-35 -10 -60 39 0
-35 -11 -60 40 0
-35 -12 -60 40 0
-36 -9 -57 38 0
-36 -10 -57 38 0
-36 -11 -57 38 0
-36 -12 -57 38 0
-36 -9 -58 38 0
-36 -10 -58 39 0
-36 -11 -58 39 0
-36 -12 -58 39 0
-36 -9 -59 38 0
-36 -10 -59 39 0
-36 -11 -59 40 0
-36 -12 -59 40 0
-36 -9 -60 38 0
-36 -10 -60 39 0
-36 -11 -60 40 0
-36 -12 -60 37 0
-57 -33 62 0
-57 -34 62 0
-57 -35 62 0
-57 -36 62 0
-58 -33 62 0
-58 -34 63 0
-58 -35 63 0
-58 -36 63 0
-59 -33 62 0
-59 -34 63 0
-59 -35 64 0
-59 -36 64 0
-60 -33 62 0
-60 -34 63 0
-60 -35 64 0
-60 -36 61 0
-13 -37 18 0
-13 -38 18 0
-13 -39 18 0
-13 -40 18 0
-14 -37 18 0
-14 -38 19 0
-14 -39 19 0
-14 -40 19 0
-15 -37 18 0
-15 -38 19 0
-15 -39 20 0
-15 -40 20 0
-16 -37 18 0
-16 -38 19 0
-16 -39 20 0
-16 -40 17 0
-37 -13 -61 42 0
-37 -14 -61 42 0
-37 -15 -61 42 0
-37 -16 -61 42 0
-37 -13 -62 42 0
-37 -14 -62 42 0
-37 -15 -62 42 0
-37 -16 -62 42 0
-37 -13 -63 42 0
-37 -14 -63 42 0
-37 -15 -63 42 0
-37 -16 -63 42 0
-37 -13 -64 42 0
-37 -14 -64 42 0
-37 -15 -64 42 0
-37 -16 -64 42 0
-38 -13 -61 42 0
-38 -14 -61 42 0
-38 -15 -61 42 0
-38 -16 -61 42 0
-38 -13 -62 42 0
-38 -14 -62 43 0
-38 -15 -62 43 0
-38 -16 -62 43 0
-38 -13 -63 42 0
-38 -14 -63 43 0
-38 -15 -63 43 0
-38 -16 -63 43 0
-38 -13 -64 42 0
-38 -14 -64 43 0
-38 -15 -64 43 0
-38 -16 -64 43 0
-39 -13 -61 42 0
-39 -14 -61 42 0
-39 -15 -61 42 0
-39 -16 -61 42 0
-39 -13 -62 42 0
-39 -14 -62 43 0
-39 -15 -62 43 0
-39 -16 -62 43 0
-39 -13 -63 42 0
-39 -14 -63 43 0
-39 -15 -63 44 0
-39 -16 -63 44 0
-39 -13 -64 42 0
-39 -14 -64 43 0
-39 -15 -64 44 0
-39 -16 -64 44 0
-40 -13 -61 42 0
-40 -14 -61 42 0
-40 -15 -61 42 0
-40 -16 -61 42 0
-40 -13 -62 42 0
-40 -14 -62 43 0
-40 -15 -62 43 0
-40 -16 -62 43 0
-40 -13 -63 42 0
-40 -14 -63 43 0
-40 -15 -63 44 0
-40 -16 -63 44 0
-40 -13 -64 42 0
-40 -14 -64 43 0
-40 -15 -64 44 0
-40 -16 -64 41 0
-61 -37 66 0
-61 -38 66 0
-61 -39 66 0
-61 -40 66 0
-62 -37 66 0
-62 -38 67 0
-62 -39 67 0
-62 -40 67 0
-63 -37 66 0
-63 -38 67 0
-63 -39 68 0
-63 -40 68 0
-64 -37 66 0
-64 -38 67 0
-64 -39 68 0
-64 -40 65 0
-17 -41 22 0
-17 -42 22 0
-17 -43 22 0
-17 -44 22 0
-18 -41 22 0
-18 -42 23 0
-18 -43 23 0
-18 -44 23 0
-19 -41 22 0
-19 -42 23 0
-19 -43 24 0
-19 -44 24 0
-20 -41 22 0
-20 -42 23 0
-20 -43 24 0
-20 -44 21 0
-41 -17 -65 46 0
-41 -18 -65 46 0
-41 -19 -65 46 0
-41 -20 -65 46 0
-41 -17 -66 46 0
-41 -18 -66 46 0
-41 -19 -66 46 0
-41 -20 -66 46 0
-41 -17 -67 46 0
-41 -18 -67 46 0
-41 -19 -67 46 0
-41 -20 -67 46 0
-41 -17 -68 46 0
-41 -18 -68 46 0
-41 -19 -68 46 0
-41 -20 -68 46 0
-42 -17 -65 46 0
-42 -18 -65 46 0
-42 -19 -65 46 0
-42 -20 -65 46 0
-42 -17 -66 46 0
-42 -18 -66 47 0
-42 -19 -66 47 0
-42 -20 -66 47 0
-42 -17 -67 46 0
-42 -18 -67 47 0
-42 -19 -67 47 0
-42 -20 -67 47 0
-42 -17 -68 46 0
-42 -18 -68 47 0
-42 -19 -68 47 0
-42 -20 -68 47 0
-43 -17 -65 46 0
-43 -18 -65 46 0
-43 -19 -65 46 0
-43 -20 -65 46 0
-43 -17 -66 46 0
-43 -18 -66 47 0
-43 -19 -66 47 0
-43 -20 -66 47 0
-43 -17 -67 46 0
-43 -18 -67 47 0
-43 -19 -67 48 0
-43 -20 -67 48 0
-43 -17 -68 46 0
-43 -18 -68 47 0
-43 -19 -68 48 0
-43 -20 -68 48 0
-44 -17 -65 46 0
-44 -18 -65 46 0
-44 -19 -65 46 0
-44 -20 -65 46 0
-44 -17 -66 46 0
-44 -18 -66 47 0
-44 -19 -66 47 0
-44 -20 -66 47 0
-44 -17 -67 46 0
-44 -18 -67 47 0
-44 -19 -67 48 0
-44 -20 -67 48 0
-44 -17 -68 46 0
-44 -18 -68 47 0
-44 -19 -68 48 0
-44 -20 -68 45 0
-65 -41 70 0
-65 -42 70 0
-65 -43 70 0
-65 -44 70 0
-66 -41 70 0
-66 -42 71 0
-66 -43 71 0
-66 -44 71 0
-67 -41 70 0
-67 -42 71 0
-67 -43 72 0
-67 -44 72 0
-68 -41 70 0
-68 -42 71 0
-68 -43 72 0
-68 -44 69 0
-21 -45 -69 0
-22 -46 -70 0
-23 -47 -71 0
-24 -48 -72 0
-1 -25 -49 0
-2 -26 -50 0
-3 -27 -51 0
-4 -28 -52 0
-5 -29 -53 0
-6 -30 -54 0
-7 -31 -55 0
-8 -32 -56 0
-9 -33 -57 0
-10 -34 -58 0
-11 -35 -59 0
-12 -36 -60 0
-13 -37 -61 0
-14 -38 -62 0
-15 -39 -63 0
-16 -40 -64 0
-17 -41 -65 0
-18 -42 -66 0
-19 -43 -67 0
-20 -44 -68 0
